NAME: line_50_2
TYPE: TSP
COMMENT: line_50_2
DIMENSION: 50
EDGE_WEIGHT_TYPE: EUC_2D
NODE_COORD_SECTION
1 0.0 231.0
2 0.0 38.0
3 0.0 245.0
4 0.0 74.0
5 0.0 431.0
6 0.0 219.0
7 0.0 446.0
8 0.0 330.0
9 0.0 160.0
10 0.0 32.0
11 0.0 23.0
12 0.0 148.0
13 0.0 396.0
14 0.0 55.0
15 0.0 74.0
16 0.0 189.0
17 0.0 84.0
18 0.0 6.0
19 0.0 254.0
20 0.0 129.0
21 0.0 34.0
22 0.0 262.0
23 0.0 369.0
24 0.0 134.0
25 0.0 447.0
26 0.0 52.0
27 0.0 355.0
28 0.0 489.0
29 0.0 446.0
30 0.0 482.0
31 0.0 369.0
32 0.0 183.0
33 0.0 237.0
34 0.0 395.0
35 0.0 380.0
36 0.0 256.0
37 0.0 492.0
38 0.0 135.0
39 0.0 62.0
40 0.0 288.0
41 0.0 116.0
42 0.0 282.0
43 0.0 497.0
44 0.0 238.0
45 0.0 365.0
46 0.0 443.0
47 0.0 207.0
48 0.0 8.0
49 0.0 496.0
50 0.0 54.0
